
Gurobi 10.0.2 (linux64) logging started Wed Aug 23 13:48:09 2023

Set parameter LogFile to value "/home/ciro/Documents/ftsp-optimizer/Optimization/Data/Logs/bier127_10_1001_1002_2.log"
Gurobi Optimizer version 10.0.2 build v10.0.2rc0 (linux64)

CPU model: Intel(R) Core(TM) i7-7500U CPU @ 2.70GHz, instruction set [SSE2]
Thread count: 2 physical cores, 2 logical processors, using up to 2 threads

Optimize a model with 16014 rows, 16383 columns and 95508 nonzeros
Model fingerprint: 0x37303d00
Variable types: 127 continuous, 16256 integer (16256 binary)
Coefficient statistics:
  Matrix range     [1e+00, 1e+02]
  Objective range  [1e+02, 2e+04]
  Bounds range     [1e+00, 1e+02]
  RHS range        [1e+00, 1e+02]
Presolve removed 1 rows and 146 columns
Presolve time: 0.26s
Presolved: 16013 rows, 16237 columns, 79581 nonzeros
Variable types: 126 continuous, 16111 integer (16111 binary)

Root relaxation: objective 6.616819e+04, 662 iterations, 0.05 seconds (0.04 work units)

    Nodes    |    Current Node    |     Objective Bounds      |     Work
 Expl Unexpl |  Obj  Depth IntInf | Incumbent    BestBd   Gap | It/Node Time

     0     0 66168.1906    0  203          - 66168.1906      -     -    0s
     0     0 76189.6110    0  204          - 76189.6110      -     -    1s
     0     0 77440.7793    0  197          - 77440.7793      -     -    1s
     0     0 77459.6608    0  203          - 77459.6608      -     -    1s
     0     0 77459.6608    0  203          - 77459.6608      -     -    1s
     0     0 78949.2620    0  230          - 78949.2620      -     -    1s
     0     0 79063.4366    0  227          - 79063.4366      -     -    1s
     0     0 79063.4366    0  227          - 79063.4366      -     -    1s
     0     0 79480.4191    0  211          - 79480.4191      -     -    2s
     0     0 79495.8877    0  219          - 79495.8877      -     -    2s
     0     0 79495.8877    0  219          - 79495.8877      -     -    2s
     0     0 79495.8877    0  215          - 79495.8877      -     -    2s
H    0     0                    113461.41824 79495.8877  29.9%     -    3s
H    0     0                    113190.15752 79495.8877  29.8%     -    3s
     0     0 79495.8877    0  215 113190.158 79495.8877  29.8%     -    3s
     0     0 79495.8877    0  213 113190.158 79495.8877  29.8%     -    3s
H    0     0                    101376.07362 79495.8877  21.6%     -    5s
     0     0 79495.8877    0  204 101376.074 79495.8877  21.6%     -    6s
     0     0 79495.8877    0  204 101376.074 79495.8877  21.6%     -    6s
     0     0 79495.8877    0  206 101376.074 79495.8877  21.6%     -    6s
     0     0 79495.8877    0  202 101376.074 79495.8877  21.6%     -    6s
     0     2 80375.6668    0  202 101376.074 80375.6668  20.7%     -    7s
H   54    52                    100802.73074 80375.6668  20.3%  57.8    9s
H   55    52                    99925.622690 80375.6668  19.6%  56.8    9s
    61    62 83744.0644   30  111 99925.6227 80375.6668  19.6%  52.8   10s
H  293   292                    98357.578069 80375.6668  18.3%  23.3   14s
   299   308 84118.1544  137  159 98357.5781 80375.6668  18.3%  23.2   15s
H  399   390                    93576.701025 80375.6668  14.1%  20.9   18s
   509   528 86620.7965  239  120 93576.7010 80375.6668  14.1%  19.4   20s
   762   715 86611.4085  221  202 93576.7010 80375.6668  14.1%  18.5   37s
   765   717 86383.1318   42  199 93576.7010 80375.6668  14.1%  18.5   44s
   769   720 89615.7830  256  209 93576.7010 80375.6668  14.1%  18.4   45s
H  769   683                    93475.836213 80375.6668  14.0%  18.4   46s
   778   689 85161.1828  205  237 93475.8362 81075.9902  13.3%  18.2   50s
   785   693 85075.9015   84  244 93475.8362 81152.2667  13.2%  18.0   55s
   790   697 83358.3406   12  236 93475.8362 81814.8845  12.5%  17.9   61s
   813   716 83905.2623   22  207 93475.8362 81814.8845  12.5%  25.4   65s
   897   769 86395.7440   44  158 93475.8362 81814.8845  12.5%  28.7   70s
  1075   878 88628.5349   92  155 93475.8362 81814.8845  12.5%  29.7   75s
